Route #1: 49 56 46 59 8 30
Route #2: 15 47 9 34 22
Route #3: 42 2 21 51 19 52
Route #4: 10 61 62 33 26 6 35 25 39
Route #5: 41 54 12 58 14 24 43 17 11 23
Route #6: 18 1 20 7 53 38 57 37
Route #7: 45 36 27 50
Route #8: 28 29
Route #9: 48 32 13 55 5 60
Route #10: 44 16 40 3 4 31
Cost 1496
Time 0.117002
